0	1577	6558	7061	4388	2761	7513	8408	3517	759
9058	0	358	319	3816	6798	2551	2543	8309	540
1270	9572	0	2770	7656	6551	5060	8143	5853	5308
9134	4854	9340	0	7952	1627	6991	2436	5498	7792
6324	8003	6788	972	0	1190	8910	9293	9172	9341
976	1419	7578	8235	4898	0	9593	3500	2859	1300
2785	4218	7432	6949	4456	9598	0	1966	7573	5689
5469	9158	3923	3171	6464	3404	1387	0	7538	4694
9576	7923	6555	9503	7094	5853	1493	6161	0	120
9649	9595	1712	345	7547	2239	2576	4733	5679	0
